models/instances/3x3.dzn
n=3;
m=9;
x=[1, 1, 1, 2, 2, 2, 3, 3, 3];
y=[1, 2, 3, 1, 2, 3, 1, 2, 3];
M=8;
N=8;
xs=[0, 1, 1, 1, 1, 2, 1, 2];
ys=[1, 0, 1, -1, 2, 1, -2, -1];
ks=[2, 2, 2, 2, 1, 1, 1, 1];
r90=[7, 4, 1, 8, 5, 2, 9, 6, 3];
r180=[9, 8, 7, 6, 5, 4, 3, 2, 1];
r270=[3, 6, 9, 2, 5, 8, 1, 4, 7];
reflect=[3, 2, 1, 6, 5, 4, 9, 8, 7];
r180_reflect=[7, 8, 9, 4, 5, 6, 1, 2, 3];
r270_reflect=[9, 6, 3, 8, 5, 2, 7, 4, 1];
d_lb=18;
d_ub=24;